1000
750 750
1 525 192
2 525 681
3 524 170
4 524 882
5 523 189
6 523 846
7 523 572
8 521 760
9 521 190
10 520 400
11 520 40
12 519 7
13 518 400
14 517 784
15 517 206
16 517 68
17 517 648
18 516 658
19 515 166
20 515 767
21 515 26
22 515 339
23 514 105
24 514 822
25 514 247
26 514 947
27 511 788
28 511 409
29 511 549
30 511 478
31 511 794
32 511 451
33 510 18
34 510 101
35 510 343
36 510 449
37 509 937
38 507 938
39 507 803
40 507 801
41 507 28
42 507 411
43 506 803
44 506 220
45 504 920
46 503 830
47 503 806
48 503 643
49 502 697
50 502 544
51 502 709
52 502 201
53 501 356
54 501 661
55 501 28
56 501 890
57 500 142
58 500 187
59 500 0
60 499 51
61 499 601
62 499 603
63 498 452
64 498 746
65 498 633
66 497 649
67 497 757
68 497 451
69 497 839
70 496 393
71 496 953
72 496 205
73 495 243
74 495 445
75 495 413
76 495 45
77 494 723
78 494 234
79 494 234
80 494 371
81 491 359
82 491 518
83 490 106
84 490 510
85 490 29
86 489 873
87 488 731
88 487 366
89 486 706
90 486 963
91 485 787
92 485 477
93 483 400
94 482 879
95 482 141
96 482 221
97 481 59
98 480 176
99 480 152
100 480 516
101 480 168
102 479 890
103 479 515
104 479 575
105 478 75
106 478 329
107 478 335
108 478 676
109 477 493
110 477 681
111 476 263
112 476 2
113 475 400
114 475 338
115 473 13
116 472 885
117 471 417
118 471 742
119 470 348
120 469 614
121 469 568
122 469 740
123 467 244
124 466 466
125 465 241
126 464 412
127 464 914
128 464 728
129 464 639
130 463 775
131 462 597
132 462 273
133 462 672
134 462 771
135 460 901
136 460 407
137 460 357
138 459 670
139 459 518
140 459 167
141 458 321
142 457 41
143 456 153
144 456 674
145 455 676
146 454 445
147 454 829
148 453 596
149 453 531
150 452 925
151 452 865
152 451 380
153 450 669
154 450 542
155 450 499
156 450 5
157 450 447
158 449 63
159 449 698
160 449 725
161 447 760
162 447 809
163 446 144
164 444 800
165 444 614
166 443 137
167 443 219
168 443 622
169 443 54
170 442 2
171 441 991
172 441 838
173 441 397
174 441 185
175 441 991
176 440 592
177 439 676
178 438 483
179 437 942
180 436 861
181 436 18
182 436 838
183 436 424
184 435 977
185 435 32
186 434 659
187 433 405
188 432 940
189 431 790
190 431 202
191 431 377
192 430 234
193 429 700
194 429 398
195 428 395
196 428 103
197 428 774
198 428 482
199 428 689
200 426 785
201 426 197
202 426 781
203 425 66
204 425 927
205 424 75
206 424 878
207 423 335
208 423 881
209 423 41
210 423 377
211 422 559
212 421 343
213 421 282
214 421 876
215 421 17
216 421 19
217 421 632
218 420 1
219 420 493
220 419 530
221 419 539
222 418 886
223 418 74
224 416 552
225 416 881
226 415 642
227 415 293
228 414 684
229 414 83
230 413 31
231 413 950
232 413 938
233 412 236
234 412 585
235 411 18
236 411 28
237 410 48
238 410 0
239 409 305
240 409 86
241 409 648
242 409 503
243 408 614
244 408 546
245 407 907
246 407 779
247 407 103
248 406 56
249 406 587
250 405 492
251 403 825
252 403 847
253 403 759
254 402 717
255 402 287
256 402 557
257 401 473
258 401 380
259 401 368
260 400 549
261 399 671
262 399 453
263 399 198
264 399 712
265 398 67
266 398 623
267 397 381
268 397 847
269 397 827
270 396 791
271 396 498
272 396 408
273 396 445
274 396 155
275 396 935
276 395 439
277 395 598
278 395 566
279 395 833
280 394 432
281 394 488
282 394 129
283 394 358
284 394 549
285 394 660
286 394 612
287 393 445
288 393 298
289 392 538
290 392 731
291 392 438
292 391 596
293 391 860
294 391 116
295 389 811
296 388 986
297 387 915
298 386 348
299 386 999
300 385 257
301 384 630
302 384 679
303 384 802
304 382 869
305 381 422
306 379 590
307 379 210
308 378 960
309 378 316
310 377 992
311 377 514
312 376 148
313 376 657
314 375 953
315 375 215
316 375 555
317 375 532
318 375 909
319 374 258
320 373 65
321 373 934
322 373 48
323 373 211
324 373 143
325 373 801
326 372 512
327 372 60
328 372 369
329 372 278
330 371 830
331 371 755
332 371 885
333 370 338
334 370 324
335 369 371
336 369 475
337 368 278
338 368 746
339 367 960
340 367 432
341 366 85
342 366 580
343 366 123
344 366 0
345 365 891
346 365 814
347 365 905
348 363 540
349 363 334
350 362 847
351 362 393
352 361 513
353 360 837
354 360 372
355 360 801
356 359 858
357 358 74
358 358 712
359 357 120
360 356 23
361 354 43
362 354 744
363 354 233
364 354 400
365 354 259
366 354 725
367 353 982
368 352 356
369 352 226
370 351 940
371 351 714
372 350 86
373 350 301
374 350 138
375 349 58
376 349 155
377 349 288
378 349 892
379 349 566
380 349 658
381 348 591
382 348 784
383 348 75
384 348 836
385 347 135
386 347 68
387 346 485
388 346 586
389 346 556
390 345 137
391 345 329
392 344 12
393 344 301
394 344 753
395 343 871
396 342 2
397 342 293
398 341 979
399 341 985
400 339 696
401 338 30
402 338 794
403 337 719
404 337 870
405 337 611
406 337 253
407 336 934
408 336 613
409 336 578
410 335 240
411 335 323
412 333 29
413 333 744
414 333 245
415 332 799
416 332 119
417 332 507
418 331 203
419 331 740
420 330 830
421 330 951
422 330 267
423 329 245
424 327 914
425 327 670
426 327 797
427 326 422
428 326 201
429 326 615
430 326 263
431 325 36
432 324 70
433 324 734
434 321 19
435 320 688
436 320 732
437 320 948
438 320 343
439 319 148
440 319 19
441 319 114
442 318 191
443 318 973
444 317 368
445 316 471
446 316 347
447 316 291
448 315 968
449 314 932
450 312 191
451 311 60
452 311 828
453 310 896
454 310 786
455 309 846
456 309 6
457 308 697
458 307 248
459 307 188
460 307 534
461 307 499
462 306 390
463 306 996
464 306 893
465 305 468
466 305 14
467 305 954
468 304 112
469 304 490
470 303 787
471 302 665
472 302 111
473 302 645
474 300 199
475 300 461
476 300 859
477 300 141
478 300 222
479 300 565
480 300 307
481 299 654
482 299 162
483 299 225
484 298 190
485 297 493
486 297 590
487 297 163
488 296 38
489 296 35
490 295 391
491 294 261
492 293 802
493 293 444
494 291 590
495 291 944
496 291 951
497 290 160
498 290 283
499 289 729
500 288 750
501 288 574
502 288 817
503 287 3
504 287 721
505 287 601
506 287 479
507 287 624
508 286 269
509 286 145
510 286 531
511 286 90
512 284 360
513 284 466
514 284 381
515 283 521
516 283 369
517 283 443
518 283 82
519 282 347
520 282 488
521 281 386
522 281 574
523 281 76
524 281 573
525 280 251
526 280 80
527 280 522
528 278 697
529 277 368
530 275 609
531 275 67
532 275 698
533 275 816
534 274 814
535 273 874
536 273 802
537 273 876
538 272 130
539 272 703
540 272 421
541 272 684
542 272 911
543 272 504
544 271 731
545 271 181
546 271 512
547 270 32
548 270 801
549 270 744
550 270 262
551 269 455
552 269 680
553 268 227
554 268 943
555 268 321
556 267 635
557 267 515
558 267 675
559 267 694
560 267 275
561 266 173
562 266 713
563 265 652
564 265 1
565 264 820
566 264 448
567 263 645
568 263 496
569 263 818
570 262 637
571 261 771
572 261 846
573 261 222
574 261 678
575 260 306
576 260 153
577 260 10
578 259 863
579 259 244
580 259 29
581 259 649
582 259 902
583 259 651
584 258 787
585 257 146
586 256 939
587 256 229
588 255 214
589 254 652
590 253 379
591 252 777
592 252 207
593 252 898
594 251 816
595 251 133
596 250 248
597 249 734
598 249 431
599 249 758
600 249 822
601 249 136
602 249 894
603 248 995
604 248 397
605 247 593
606 247 171
607 247 778
608 246 295
609 245 778
610 245 558
611 245 774
612 244 582
613 243 378
614 243 405
615 243 40
616 243 108
617 242 917
618 242 660
619 242 78
620 241 39
621 240 457
622 239 615
623 237 244
624 236 852
625 236 90
626 236 260
627 235 660
628 235 862
629 235 11
630 234 120
631 233 118
632 232 461
633 232 36
634 232 871
635 230 151
636 230 797
637 230 160
638 229 711
639 229 593
640 229 581
641 228 448
642 228 205
643 228 584
644 228 817
645 227 124
646 226 532
647 226 872
648 226 816
649 225 83
650 224 514
651 224 960
652 224 421
653 224 721
654 223 557
655 223 200
656 222 979
657 221 436
658 221 75
659 220 479
660 219 227
661 218 317
662 218 702
663 218 510
664 217 916
665 216 346
666 216 803
667 215 295
668 215 93
669 214 699
670 214 162
671 214 613
672 212 785
673 212 614
674 212 111
675 211 818
676 210 737
677 209 740
678 209 616
679 208 65
680 207 650
681 206 207
682 206 686
683 205 742
684 205 438
685 204 593
686 204 894
687 204 157
688 202 33
689 202 735
690 202 657
691 201 154
692 201 354
693 201 78
694 201 848
695 200 736
696 199 516
697 199 560
698 199 559
699 199 839
700 199 875
701 198 471
702 198 358
703 198 846
704 197 129
705 197 918
706 196 632
707 196 547
708 194 561
709 193 828
710 193 315
711 193 461
712 193 272
713 193 31
714 192 557
715 191 888
716 190 771
717 190 593
718 190 727
719 189 938
720 189 647
721 189 417
722 188 493
723 188 947
724 188 449
725 188 558
726 188 355
727 187 246
728 187 739
729 186 693
730 186 66
731 186 153
732 186 274
733 185 351
734 185 122
735 184 324
736 183 818
737 183 906
738 182 401
739 181 160
740 181 55
741 180 141
742 180 609
743 180 584
744 179 266
745 178 581
746 178 301
747 178 678
748 177 141
749 177 81
750 177 564
751 176 717
752 176 799
753 176 724
754 175 885
755 175 12
756 175 187
757 175 801
758 175 237
759 175 159
760 175 435
761 174 678
762 174 169
763 173 176
764 172 579
765 171 252
766 171 827
767 171 791
768 170 610
769 170 218
770 168 519
771 168 623
772 168 526
773 167 107
774 166 961
775 166 47
776 166 57
777 165 221
778 165 397
779 164 237
780 164 874
781 163 126
782 163 598
783 162 336
784 162 142
785 161 893
786 161 373
787 161 208
788 161 742
789 160 671
790 160 627
791 160 155
792 160 323
793 160 570
794 159 546
795 159 943
796 159 843
797 157 413
798 157 40
799 157 788
800 156 604
801 156 700
802 153 192
803 153 738
804 153 387
805 153 7
806 152 175
807 151 113
808 151 549
809 151 191
810 150 182
811 150 222
812 150 432
813 149 487
814 149 662
815 148 939
816 148 748
817 148 188
818 148 880
819 148 36
820 148 894
821 146 520
822 146 655
823 146 491
824 145 562
825 145 660
826 145 233
827 144 820
828 143 489
829 142 168
830 141 567
831 141 252
832 141 289
833 140 456
834 140 588
835 140 163
836 139 339
837 139 396
838 139 829
839 139 344
840 139 5
841 138 333
842 138 819
843 138 405
844 137 735
845 137 969
846 137 966
847 137 839
848 136 815
849 136 489
850 135 234
851 135 998
852 135 539
853 134 979
854 134 945
855 134 183
856 133 148
857 133 868
858 133 712
859 132 347
860 131 709
861 131 290
862 130 13
863 130 575
864 129 711
865 129 914
866 129 189
867 129 111
868 129 736
869 128 290
870 128 696
871 127 8
872 127 801
873 127 67
874 127 663
875 126 372
876 125 966
877 125 208
878 125 950
879 124 208
880 124 509
881 124 670
882 123 593
883 123 893
884 123 343
885 122 597
886 122 696
887 122 778
888 121 609
889 121 492
890 120 189
891 120 346
892 120 562
893 120 598
894 119 958
895 119 635
896 119 86
897 118 530
898 118 212
899 117 541
900 117 601
901 117 648
902 117 686
903 117 545
904 116 695
905 116 505
906 116 766
907 116 764
908 115 31
909 114 755
910 114 272
911 114 821
912 113 857
913 113 959
914 113 736
915 111 430
916 111 478
917 110 676
918 109 917
919 109 695
920 109 603
921 107 70
922 107 173
923 106 203
924 105 73
925 105 879
926 104 250
927 103 192
928 103 598
929 103 515
930 102 307
931 102 959
932 102 199
933 102 77
934 102 153
935 101 231
936 101 74
937 101 3
938 101 479
939 101 761
940 101 220
941 100 738
942 100 867
943 100 695
944 100 720
945 98 80
946 98 36
947 97 323
948 97 714
949 97 156
950 97 697
951 96 198
952 96 82
953 96 62
954 95 323
955 95 167
956 94 676
957 94 662
958 94 918
959 93 706
960 93 249
961 93 478
962 93 449
963 92 134
964 91 53
965 91 127
966 91 624
967 91 35
968 91 61
969 90 11
970 90 430
971 90 414
972 90 892
973 89 262
974 89 75
975 89 375
976 88 308
977 88 669
978 87 781
979 85 442
980 84 49
981 84 433
982 83 636
983 83 880
984 82 631
985 82 727
986 81 951
987 81 262
988 81 276
989 80 957
990 80 841
991 79 369
992 79 181
993 78 876
994 78 921
995 78 990
996 78 894
997 76 153
998 75 463
999 75 495
1000 75 259
